NAME : XML100_3164_22
DIMENSION : 101
NB_CLUSTERS : 4
CLUSTERING_ALG : KMedoids
CLUSTERING_PARAMS : k(3)
CLUSTERS
1 0
2 1 6 7 8 13 14 17 19 22 26 27 28 32 33 34 46 50 53 54 56 57 62 63 66 70 72 74 76 81 82 84 86 89 90 92 93 96 100
3 3 4 5 16 30 35 36 37 38 41 44 51 52 55 58 60 61 65 67 69 71 79 80 88 91 95 97
4 2 9 10 11 12 15 18 20 21 23 24 25 29 31 39 40 42 43 45 47 48 49 59 64 68 73 75 77 78 83 85 87 94 98 99
EOF